(declare-fun bvlambda_25_ ()Bool         )
(declare-fun bvlambda_26_ () (_ BitVec 12))
(declare-fun a158 () (Array (_ BitVec 1) (_ BitVec 13)))
(assert
(let (($e22 (_ bv0 2)))
(let (($e24 (_ bv3586 15)))
(let (($e40 (_ bv2 13)))
(let (($e78 (_ bv7346 13)))
(let (($e267 (concat $e22 bvlambda_25_)))
(let (($e268 (concat $e267 bvlambda_26_)))
(let (($e269      (bvult        $e24  $e268)         ))
(let (($e603 (store a158 true        $e40)))
(let (($e604        $e603          ))
(let (($e605 (select $e604 (bvnot $e269))))
                  (=        $e78  $e605)
                                                                                                                                                                                                                                                                                                                                                                                                                                                                                                                                                                                                                                                                                                                                                                                                                                                                                                                                                                                                                                                                                                                                                                                                                                                                                                                                                                                                                                                                                                                                                                                                                                                                                                                                                                                                                                                                                                                                                                                                                          )))                                                                                                                                                                                                                                                                                                                                             )))                                                                                                                                                     )                                     )               ) )                     )
